extractfix/jasper/CVE-2016-8691/components/n.smt2
(declare-const rvalue_n (_ BitVec 32))
(declare-const lvalue_n (_ BitVec 32))
(declare-const rreturn (_ BitVec 32))
(declare-const lreturn (_ BitVec 32))
(assert (and (= rreturn rvalue_n) (= lreturn lvalue_n)))